InboundTrucks  = 20;
OutboundTrucks = 15;
ReleaseTime    = [20,3,0,8,7,7,4,3,17,2,18,13,1,0,2,6,7,16,19,0];
UnloadTime     = [9,4,9,7,4,8,10,5,1,3,7,6,5,3,4,6,2,2,7,2];
LoadTime       = [6,6,10,5,1,8,9,2,7,2,9,5,10,6,10];
TransferTime   = [| 2,1,1,2,3,1,2,1,4,3,4,3,2,3,3 | 2,3,1,5,2,5,2,2,4,4,3,5,2,3,1 | 2,1,3,4,3,1,2,5,3,2,4,4,4,2,3 | 2,2,5,5,3,5,4,5,4,3,2,2,5,4,1 | 1,1,2,2,4,5,1,4,4,5,4,5,3,5,1 | 1,5,3,3,1,3,4,2,4,1,3,5,2,5,1 | 3,5,5,2,2,3,2,5,5,1,5,3,4,1,1 | 3,3,2,1,2,5,1,1,4,1,5,2,2,4,5 | 2,3,5,5,4,2,5,2,3,4,3,4,5,4,1 | 2,2,1,3,1,5,5,2,5,2,1,1,1,2,1 | 1,3,1,5,2,3,4,2,5,2,5,5,4,2,4 | 4,2,1,1,4,3,4,4,4,1,1,1,4,3,1 | 2,2,2,5,4,2,4,2,3,4,2,1,4,5,1 | 1,5,1,1,2,2,4,4,4,2,4,1,2,4,1 | 4,3,4,3,4,5,4,2,2,3,2,1,5,5,1 | 3,1,1,5,4,5,5,2,1,5,1,2,1,5,1 | 2,4,1,5,2,5,5,1,5,1,4,5,5,5,3 | 3,2,3,2,3,4,2,3,4,3,1,1,4,5,5 | 1,1,5,2,5,3,2,3,1,2,3,3,2,4,5 | 3,5,5,1,5,3,1,2,3,1,1,5,2,3,3 |];
